x = 22;
y = 11;
c = 76;
n = 41;

p = [86  79  21  89  46  50  68  21  13  84  28  81  95  73  26  74  19  32  92  27  91  64  40  83  71  91  92  72  43  11  53  97  54  21  59  69  42  94  48  77  68];
w = [6  5  7  4  10  2  1  7  7  1  4  3  3  10  1  1  4  4  4  5  3  9  10  9  5  9  2  2  2  8  5  5  1  4  7  7  3  7  2  3  10];
s = [9  5  4  11  11  4  1  1  10  4  2  11  10  6  4  6  9  1  5  1  10  7  6  6  1  8  3  5  11  3  11  1  7  8  11  8  7  2  11  1  10];
